c Reduced graph for queen12_12 generated by Cyril Grelier
p edge 144 2596
e 1 3
e 1 7
e 1 9
e 1 20
e 1 21
e 1 23
e 1 24
e 1 26
e 1 31
e 1 32
e 1 38
e 1 42
e 1 43
e 1 47
e 1 49
e 1 50
e 1 52
e 1 54
e 1 57
e 1 62
e 1 72
e 1 76
e 1 77
e 1 78
e 1 79
e 1 82
e 1 84
e 1 86
e 1 89
e 1 93
e 1 94
e 1 96
e 1 97
e 1 98
e 1 99
e 1 102
e 1 105
e 1 108
e 1 109
e 1 124
e 1 125
e 1 134
e 1 140
e 2 4
e 2 8
e 2 11
e 2 12
e 2 14
e 2 17
e 2 25
e 2 27
e 2 30
e 2 34
e 2 38
e 2 39
e 2 56
e 2 62
e 2 66
e 2 73
e 2 76
e 2 83
e 2 85
e 2 88
e 2 91
e 2 97
e 2 98
e 2 99
e 2 104
e 2 105
e 2 110
e 2 111
e 2 115
e 2 116
e 2 121
e 2 125
e 2 130
e 2 135
e 2 144
e 3 5
e 3 9
e 3 16
e 3 17
e 3 23
e 3 29
e 3 31
e 3 41
e 3 43
e 3 46
e 3 47
e 3 54
e 3 55
e 3 58
e 3 62
e 3 63
e 3 65
e 3 71
e 3 72
e 3 84
e 3 91
e 3 98
e 3 105
e 3 106
e 3 107
e 3 108
e 3 120
e 3 124
e 3 132
e 3 134
e 3 138
e 3 139
e 4 6
e 4 8
e 4 17
e 4 18
e 4 24
e 4 30
e 4 46
e 4 48
e 4 56
e 4 57
e 4 67
e 4 73
e 4 74
e 4 77
e 4 79
e 4 80
e 4 84
e 4 85
e 4 88
e 4 92
e 4 97
e 4 98
e 4 104
e 4 111
e 4 113
e 4 115
e 4 116
e 4 124
e 4 125
e 4 131
e 4 133
e 4 138
e 5 9
e 5 11
e 5 13
e 5 16
e 5 17
e 5 22
e 5 23
e 5 25
e 5 28
e 5 31
e 5 40
e 5 41
e 5 45
e 5 48
e 5 49
e 5 50
e 5 51
e 5 55
e 5 58
e 5 63
e 5 65
e 5 69
e 5 79
e 5 89
e 5 107
e 5 116
e 5 118
e 5 119
e 5 130
e 5 132
e 5 135
e 5 136
e 6 9
e 6 28
e 6 29
e 6 30
e 6 32
e 6 36
e 6 48
e 6 49
e 6 53
e 6 56
e 6 57
e 6 61
e 6 62
e 6 66
e 6 70
e 6 73
e 6 75
e 6 80
e 6 84
e 6 90
e 6 92
e 6 96
e 6 112
e 6 113
e 6 121
e 6 130
e 6 131
e 6 133
e 6 137
e 6 138
e 6 143
e 6 144
e 7 9
e 7 10
e 7 12
e 7 19
e 7 20
e 7 21
e 7 24
e 7 27
e 7 30
e 7 32
e 7 35
e 7 41
e 7 44
e 7 48
e 7 49
e 7 67
e 7 68
e 7 72
e 7 74
e 7 78
e 7 82
e 7 83
e 7 87
e 7 88
e 7 89
e 7 90
e 7 94
e 7 97
e 7 101
e 7 105
e 7 106
e 7 108
e 7 116
e 7 117
e 7 119
e 7 125
e 7 126
e 7 129
e 7 139
e 7 142
e 8 11
e 8 12
e 8 17
e 8 31
e 8 47
e 8 50
e 8 53
e 8 55
e 8 59
e 8 60
e 8 61
e 8 69
e 8 70
e 8 73
e 8 78
e 8 85
e 8 86
e 8 93
e 8 97
e 8 98
e 8 101
e 8 103
e 8 104
e 8 106
e 8 115
e 8 116
e 8 118
e 8 121
e 8 125
e 8 126
e 8 129
e 8 134
e 8 136
e 8 137
e 8 141
e 9 16
e 9 17
e 9 21
e 9 24
e 9 28
e 9 31
e 9 41
e 9 55
e 9 58
e 9 62
e 9 65
e 9 70
e 9 78
e 9 82
e 9 89
e 9 90
e 9 94
e 9 96
e 9 97
e 9 105
e 9 107
e 9 112
e 9 114
e 9 131
e 9 132
e 9 137
e 9 143
e 9 144
e 10 11
e 10 12
e 10 14
e 10 18
e 10 31
e 10 32
e 10 36
e 10 64
e 10 65
e 10 67
e 10 68
e 10 69
e 10 81
e 10 84
e 10 90
e 10 92
e 10 95
e 10 96
e 10 108
e 10 114
e 10 116
e 10 118
e 10 119
e 10 121
e 10 122
e 10 123
e 10 127
e 10 135
e 10 139
e 10 140
e 10 142
e 10 143
e 11 12
e 11 18
e 11 28
e 11 56
e 11 59
e 11 61
e 11 64
e 11 65
e 11 66
e 11 69
e 11 76
e 11 78
e 11 81
e 11 83
e 11 84
e 11 86
e 11 99
e 11 101
e 11 106
e 11 114
e 11 121
e 11 122
e 11 123
e 11 134
e 11 135
e 11 136
e 11 137
e 11 140
e 11 144
e 12 14
e 12 15
e 12 32
e 12 33
e 12 35
e 12 50
e 12 55
e 12 56
e 12 66
e 12 67
e 12 68
e 12 69
e 12 70
e 12 75
e 12 76
e 12 80
e 12 82
e 12 83
e 12 90
e 12 93
e 12 99
e 12 103
e 12 108
e 12 109
e 12 116
e 12 118
e 12 119
e 12 121
e 12 124
e 12 126
e 12 132
e 12 135
e 12 139
e 12 141
e 12 142
e 12 144
e 13 15
e 13 18
e 13 20
e 13 23
e 13 42
e 13 45
e 13 48
e 13 51
e 13 53
e 13 78
e 13 79
e 13 82
e 13 85
e 13 87
e 13 89
e 13 98
e 13 100
e 13 107
e 13 108
e 13 109
e 13 111
e 13 113
e 13 114
e 13 117
e 13 118
e 13 119
e 13 120
e 13 126
e 13 127
e 13 130
e 13 131
e 13 135
e 13 136
e 13 137
e 13 140
e 13 144
e 14 15
e 14 19
e 14 27
e 14 33
e 14 35
e 14 36
e 14 38
e 14 39
e 14 52
e 14 60
e 14 62
e 14 69
e 14 75
e 14 80
e 14 82
e 14 88
e 14 92
e 14 99
e 14 105
e 14 109
e 14 110
e 14 111
e 14 116
e 14 118
e 14 120
e 14 121
e 14 124
e 14 128
e 14 130
e 14 132
e 14 133
e 14 143
e 15 26
e 15 28
e 15 29
e 15 33
e 15 35
e 15 37
e 15 40
e 15 42
e 15 46
e 15 54
e 15 58
e 15 59
e 15 68
e 15 69
e 15 72
e 15 75
e 15 78
e 15 80
e 15 82
e 15 89
e 15 95
e 15 103
e 15 104
e 15 107
e 15 109
e 15 114
e 15 124
e 15 125
e 15 129
e 15 131
e 15 132
e 15 140
e 16 17
e 16 21
e 16 22
e 16 31
e 16 34
e 16 41
e 16 42
e 16 44
e 16 45
e 16 52
e 16 53
e 16 54
e 16 55
e 16 56
e 16 58
e 16 65
e 16 67
e 16 68
e 16 94
e 16 101
e 16 103
e 16 104
e 16 106
e 16 107
e 16 109
e 16 111
e 16 112
e 16 122
e 16 132
e 16 134
e 17 31
e 17 33
e 17 41
e 17 51
e 17 55
e 17 58
e 17 61
e 17 64
e 17 65
e 17 73
e 17 76
e 17 85
e 17 86
e 17 97
e 17 98
e 17 103
e 17 104
e 17 107
e 17 115
e 17 116
e 17 119
e 17 120
e 17 125
e 17 129
e 17 132
e 17 143
e 18 42
e 18 51
e 18 53
e 18 58
e 18 64
e 18 65
e 18 67
e 18 74
e 18 77
e 18 79
e 18 81
e 18 82
e 18 84
e 18 87
e 18 88
e 18 89
e 18 98
e 18 114
e 18 120
e 18 121
e 18 122
e 18 123
e 18 124
e 18 126
e 18 127
e 18 131
e 18 137
e 18 140
e 18 144
e 19 20
e 19 22
e 19 28
e 19 30
e 19 32
e 19 33
e 19 34
e 19 37
e 19 41
e 19 45
e 19 49
e 19 52
e 19 60
e 19 65
e 19 66
e 19 72
e 19 81
e 19 83
e 19 88
e 19 91
e 19 93
e 19 97
e 19 99
e 19 101
e 19 110
e 19 115
e 19 116
e 19 117
e 19 120
e 19 124
e 19 126
e 19 127
e 19 128
e 19 129
e 19 133
e 19 136
e 19 138
e 19 141
e 19 143
e 20 22
e 20 26
e 20 27
e 20 31
e 20 32
e 20 35
e 20 37
e 20 38
e 20 42
e 20 44
e 20 45
e 20 48
e 20 50
e 20 57
e 20 66
e 20 74
e 20 77
e 20 81
e 20 85
e 20 86
e 20 87
e 20 91
e 20 97
e 20 99
e 20 100
e 20 106
e 20 108
e 20 109
e 20 111
e 20 113
e 20 114
e 20 117
e 20 124
e 20 125
e 20 137
e 20 141
e 20 143
e 21 22
e 21 24
e 21 25
e 21 34
e 21 37
e 21 43
e 21 44
e 21 46
e 21 52
e 21 53
e 21 56
e 21 57
e 21 64
e 21 68
e 21 74
e 21 75
e 21 78
e 21 82
e 21 85
e 21 88
e 21 89
e 21 94
e 21 97
e 21 99
e 21 103
e 21 105
e 21 111
e 21 112
e 21 115
e 21 117
e 21 118
e 21 134
e 21 139
e 22 25
e 22 34
e 22 37
e 22 38
e 22 40
e 22 44
e 22 45
e 22 47
e 22 49
e 22 50
e 22 51
e 22 52
e 22 53
e 22 56
e 22 63
e 22 66
e 22 68
e 22 69
e 22 81
e 22 83
e 22 91
e 22 92
e 22 97
e 22 103
e 22 111
e 22 115
e 22 116
e 22 124
e 22 134
e 22 141
e 22 142
e 22 143
e 23 24
e 23 27
e 23 34
e 23 35
e 23 36
e 23 43
e 23 45
e 23 48
e 23 54
e 23 62
e 23 63
e 23 70
e 23 72
e 23 77
e 23 79
e 23 80
e 23 81
e 23 83
e 23 84
e 23 85
e 23 89
e 23 98
e 23 108
e 23 112
e 23 118
e 23 119
e 23 122
e 23 124
e 23 128
e 23 130
e 23 134
e 23 135
e 23 136
e 24 25
e 24 34
e 24 35
e 24 36
e 24 37
e 24 46
e 24 54
e 24 55
e 24 60
e 24 61
e 24 63
e 24 70
e 24 77
e 24 78
e 24 82
e 24 83
e 24 85
e 24 87
e 24 89
e 24 94
e 24 97
e 24 102
e 24 105
e 24 110
e 24 111
e 24 113
e 24 122
e 24 128
e 24 142
e 25 30
e 25 34
e 25 37
e 25 40
e 25 43
e 25 46
e 25 49
e 25 50
e 25 51
e 25 54
e 25 55
e 25 60
e 25 61
e 25 63
e 25 64
e 25 69
e 25 74
e 25 75
e 25 87
e 25 91
e 25 99
e 25 102
e 25 110
e 25 112
e 25 113
e 25 115
e 25 116
e 25 117
e 25 118
e 25 142
e 26 28
e 26 29
e 26 31
e 26 32
e 26 38
e 26 40
e 26 41
e 26 42
e 26 44
e 26 50
e 26 54
e 26 57
e 26 59
e 26 77
e 26 79
e 26 81
e 26 82
e 26 86
e 26 89
e 26 90
e 26 95
e 26 98
e 26 99
e 26 100
e 26 101
e 26 102
e 26 103
e 26 104
e 26 107
e 26 114
e 26 129
e 26 139
e 27 35
e 27 36
e 27 38
e 27 39
e 27 40
e 27 43
e 27 44
e 27 48
e 27 58
e 27 62
e 27 67
e 27 74
e 27 76
e 27 78
e 27 80
e 27 81
e 27 87
e 27 88
e 27 100
e 27 105
e 27 106
e 27 110
e 27 111
e 27 112
e 27 121
e 27 125
e 27 127
e 27 130
e 27 133
e 27 141
e 28 29
e 28 32
e 28 33
e 28 34
e 28 40
e 28 54
e 28 62
e 28 65
e 28 70
e 28 89
e 28 90
e 28 93
e 28 95
e 28 96
e 28 103
e 28 104
e 28 110
e 28 112
e 28 114
e 28 115
e 28 127
e 28 129
e 28 131
e 28 136
e 28 137
e 28 138
e 28 143
e 28 144
e 29 32
e 29 36
e 29 40
e 29 46
e 29 47
e 29 49
e 29 53
e 29 54
e 29 55
e 29 61
e 29 63
e 29 66
e 29 71
e 29 73
e 29 75
e 29 89
e 29 91
e 29 95
e 29 103
e 29 104
e 29 105
e 29 106
e 29 114
e 29 120
e 29 129
e 29 130
e 29 138
e 29 139
e 30 34
e 30 38
e 30 41
e 30 48
e 30 49
e 30 56
e 30 57
e 30 72
e 30 75
e 30 80
e 30 83
e 30 84
e 30 88
e 30 91
e 30 92
e 30 96
e 30 101
e 30 113
e 30 117
e 30 119
e 30 123
e 30 126
e 30 128
e 30 129
e 30 133
e 30 138
e 30 141
e 31 32
e 31 38
e 31 41
e 31 42
e 31 47
e 31 50
e 31 53
e 31 55
e 31 57
e 31 58
e 31 60
e 31 65
e 31 69
e 31 77
e 31 86
e 31 95
e 31 96
e 31 99
e 31 107
e 31 127
e 31 129
e 31 132
e 31 135
e 32 33
e 32 34
e 32 36
e 32 38
e 32 42
e 32 49
e 32 50
e 32 53
e 32 57
e 32 61
e 32 65
e 32 66
e 32 67
e 32 68
e 32 73
e 32 75
e 32 77
e 32 86
e 32 90
e 32 93
e 32 99
e 32 108
e 32 110
e 32 115
e 32 116
e 32 119
e 32 127
e 32 130
e 32 136
e 32 138
e 32 139
e 32 142
e 33 34
e 33 35
e 33 44
e 33 50
e 33 51
e 33 60
e 33 64
e 33 65
e 33 69
e 33 71
e 33 72
e 33 73
e 33 75
e 33 76
e 33 80
e 33 82
e 33 86
e 33 93
e 33 94
e 33 100
e 33 109
e 33 110
e 33 115
e 33 119
e 33 123
e 33 124
e 33 127
e 33 129
e 33 131
e 33 132
e 33 135
e 33 136
e 33 138
e 33 143
e 34 35
e 34 36
e 34 44
e 34 52
e 34 53
e 34 56
e 34 63
e 34 65
e 34 68
e 34 70
e 34 77
e 34 83
e 34 85
e 34 91
e 34 93
e 34 103
e 34 110
e 34 111
e 34 115
e 34 122
e 34 127
e 34 128
e 34 134
e 34 136
e 34 138
e 35 36
e 35 39
e 35 43
e 35 44
e 35 45
e 35 48
e 35 57
e 35 63
e 35 69
e 35 70
e 35 74
e 35 75
e 35 77
e 35 80
e 35 82
e 35 83
e 35 85
e 35 87
e 35 90
e 35 106
e 35 109
e 35 122
e 35 124
e 35 125
e 35 128
e 35 132
e 35 140
e 36 40
e 36 43
e 36 49
e 36 53
e 36 58
e 36 61
e 36 63
e 36 66
e 36 67
e 36 70
e 36 73
e 36 75
e 36 76
e 36 77
e 36 78
e 36 83
e 36 85
e 36 92
e 36 100
e 36 118
e 36 122
e 36 127
e 36 128
e 36 130
e 36 133
e 36 141
e 36 143
e 37 42
e 37 45
e 37 46
e 37 54
e 37 55
e 37 57
e 37 58
e 37 59
e 37 60
e 37 61
e 37 66
e 37 68
e 37 72
e 37 81
e 37 85
e 37 87
e 37 88
e 37 91
e 37 97
e 37 102
e 37 110
e 37 113
e 37 124
e 37 125
e 37 139
e 37 141
e 37 142
e 37 143
e 38 39
e 38 42
e 38 47
e 38 50
e 38 57
e 38 62
e 38 75
e 38 77
e 38 83
e 38 86
e 38 88
e 38 92
e 38 96
e 38 99
e 38 105
e 38 110
e 38 111
e 38 115
e 38 119
e 38 121
e 38 123
e 38 128
e 38 130
e 38 141
e 38 142
e 39 43
e 39 45
e 39 51
e 39 57
e 39 59
e 39 62
e 39 66
e 39 68
e 39 71
e 39 74
e 39 77
e 39 80
e 39 88
e 39 90
e 39 92
e 39 93
e 39 94
e 39 95
e 39 97
e 39 102
e 39 105
e 39 107
e 39 108
e 39 110
e 39 111
e 39 117
e 39 121
e 39 128
e 39 130
e 39 140
e 40 43
e 40 49
e 40 50
e 40 51
e 40 54
e 40 58
e 40 63
e 40 67
e 40 69
e 40 76
e 40 78
e 40 89
e 40 95
e 40 100
e 40 103
e 40 104
e 40 114
e 40 116
e 40 123
e 40 127
e 40 129
e 40 132
e 40 133
e 40 136
e 40 141
e 40 144
e 41 49
e 41 55
e 41 58
e 41 59
e 41 65
e 41 71
e 41 72
e 41 79
e 41 81
e 41 82
e 41 83
e 41 87
e 41 88
e 41 90
e 41 100
e 41 101
e 41 104
e 41 107
e 41 117
e 41 126
e 41 129
e 41 132
e 41 134
e 42 45
e 42 46
e 42 50
e 42 51
e 42 53
e 42 57
e 42 58
e 42 59
e 42 67
e 42 68
e 42 72
e 42 77
e 42 82
e 42 86
e 42 87
e 42 94
e 42 98
e 42 99
e 42 101
e 42 104
e 42 109
e 42 112
e 42 120
e 42 122
e 42 125
e 42 126
e 42 127
e 42 144
e 43 45
e 43 46
e 43 54
e 43 57
e 43 58
e 43 62
e 43 64
e 43 67
e 43 72
e 43 74
e 43 75
e 43 76
e 43 78
e 43 84
e 43 90
e 43 98
e 43 99
e 43 100
e 43 108
e 43 112
e 43 115
e 43 117
e 43 118
e 43 124
e 43 127
e 43 133
e 43 134
e 43 140
e 43 141
e 44 48
e 44 50
e 44 52
e 44 53
e 44 56
e 44 60
e 44 68
e 44 71
e 44 72
e 44 73
e 44 74
e 44 87
e 44 94
e 44 98
e 44 100
e 44 101
e 44 102
e 44 103
e 44 106
e 44 107
e 44 111
e 44 123
e 44 125
e 44 131
e 44 134
e 44 135
e 44 139
e 45 48
e 45 57
e 45 66
e 45 67
e 45 79
e 45 81
e 45 89
e 45 90
e 45 91
e 45 94
e 45 97
e 45 101
e 45 104
e 45 109
e 45 112
e 45 118
e 45 119
e 45 122
e 45 124
e 45 130
e 45 135
e 45 136
e 45 140
e 45 141
e 45 143
e 46 47
e 46 58
e 46 59
e 46 63
e 46 64
e 46 68
e 46 71
e 46 72
e 46 74
e 46 75
e 46 91
e 46 99
e 46 105
e 46 106
e 46 111
e 46 112
e 46 115
e 46 117
e 46 118
e 46 120
e 46 125
e 46 138
e 46 139
e 47 49
e 47 52
e 47 53
e 47 60
e 47 63
e 47 71
e 47 76
e 47 79
e 47 83
e 47 91
e 47 92
e 47 93
e 47 96
e 47 102
e 47 105
e 47 106
e 47 109
e 47 115
e 47 120
e 47 125
e 47 129
e 47 138
e 47 139
e 47 140
e 47 142
e 48 56
e 48 57
e 48 62
e 48 74
e 48 79
e 48 80
e 48 84
e 48 87
e 48 89
e 48 92
e 48 106
e 48 113
e 48 118
e 48 119
e 48 122
e 48 125
e 48 130
e 48 133
e 48 135
e 48 136
e 48 138
e 49 50
e 49 51
e 49 52
e 49 53
e 49 61
e 49 63
e 49 66
e 49 69
e 49 72
e 49 73
e 49 75
e 49 76
e 49 79
e 49 83
e 49 88
e 49 93
e 49 96
e 49 101
e 49 102
e 49 109
e 49 116
e 49 117
e 49 125
e 49 126
e 49 129
e 49 130
e 49 140
e 50 51
e 50 55
e 50 57
e 50 60
e 50 63
e 50 69
e 50 70
e 50 71
e 50 72
e 50 73
e 50 77
e 50 86
e 50 93
e 50 94
e 50 99
e 50 100
e 50 103
e 50 116
e 50 118
e 50 121
e 50 123
e 50 126
e 50 131
e 50 135
e 50 141
e 51 53
e 51 59
e 51 63
e 51 64
e 51 66
e 51 69
e 51 74
e 51 76
e 51 82
e 51 86
e 51 87
e 51 92
e 51 93
e 51 94
e 51 95
e 51 98
e 51 107
e 51 108
e 51 116
e 51 119
e 51 120
e 51 126
e 51 127
e 51 128
e 51 129
e 51 143
e 51 144
e 52 53
e 52 56
e 52 60
e 52 68
e 52 73
e 52 76
e 52 79
e 52 86
e 52 91
e 52 93
e 52 95
e 52 96
e 52 99
e 52 102
e 52 103
e 52 109
e 52 111
e 52 116
e 52 120
e 52 125
e 52 126
e 52 128
e 52 132
e 52 133
e 52 134
e 52 140
e 52 142
e 53 56
e 53 60
e 53 61
e 53 66
e 53 68
e 53 73
e 53 75
e 53 82
e 53 87
e 53 98
e 53 103
e 53 111
e 53 120
e 53 126
e 53 127
e 53 129
e 53 130
e 53 134
e 53 144
e 54 55
e 54 60
e 54 61
e 54 62
e 54 72
e 54 84
e 54 87
e 54 89
e 54 95
e 54 98
e 54 102
e 54 103
e 54 104
e 54 106
e 54 108
e 54 110
e 54 113
e 54 114
e 54 124
e 54 129
e 54 134
e 54 142
e 55 58
e 55 60
e 55 61
e 55 65
e 55 70
e 55 87
e 55 93
e 55 102
e 55 103
e 55 107
e 55 110
e 55 113
e 55 118
e 55 121
e 55 126
e 55 132
e 55 141
e 55 142
e 56 57
e 56 63
e 56 66
e 56 68
e 56 76
e 56 80
e 56 83
e 56 84
e 56 92
e 56 99
e 56 103
e 56 110
e 56 111
e 56 113
e 56 133
e 56 134
e 56 135
e 56 138
e 56 144
e 57 77
e 57 80
e 57 84
e 57 85
e 57 86
e 57 88
e 57 90
e 57 92
e 57 99
e 57 113
e 57 133
e 57 138
e 57 139
e 57 140
e 58 59
e 58 65
e 58 67
e 58 68
e 58 72
e 58 76
e 58 78
e 58 89
e 58 100
e 58 107
e 58 125
e 58 127
e 58 132
e 58 133
e 58 137
e 58 141
e 59 61
e 59 66
e 59 68
e 59 69
e 59 72
e 59 74
e 59 78
e 59 79
e 59 81
e 59 82
e 59 86
e 59 90
e 59 92
e 59 93
e 59 94
e 59 95
e 59 100
e 59 101
e 59 106
e 59 107
e 59 108
e 59 125
e 59 128
e 59 134
e 59 136
e 59 137
e 60 61
e 60 71
e 60 72
e 60 73
e 60 87
e 60 94
e 60 99
e 60 100
e 60 102
e 60 110
e 60 113
e 60 116
e 60 120
e 60 123
e 60 128
e 60 129
e 60 131
e 60 133
e 60 135
e 60 142
e 61 66
e 61 69
e 61 73
e 61 75
e 61 78
e 61 86
e 61 87
e 61 101
e 61 102
e 61 103
e 61 106
e 61 110
e 61 113
e 61 120
e 61 130
e 61 134
e 61 136
e 61 137
e 61 142
e 62 70
e 62 72
e 62 84
e 62 88
e 62 90
e 62 96
e 62 98
e 62 105
e 62 108
e 62 110
e 62 111
e 62 112
e 62 121
e 62 122
e 62 124
e 62 130
e 62 131
e 62 134
e 62 137
e 62 143
e 62 144
e 63 69
e 63 70
e 63 71
e 63 77
e 63 83
e 63 85
e 63 91
e 63 105
e 63 106
e 63 110
e 63 116
e 63 120
e 63 122
e 63 128
e 63 138
e 63 139
e 64 65
e 64 70
e 64 74
e 64 75
e 64 76
e 64 81
e 64 84
e 64 86
e 64 99
e 64 112
e 64 114
e 64 115
e 64 117
e 64 118
e 64 119
e 64 121
e 64 122
e 64 123
e 64 129
e 64 130
e 64 133
e 64 140
e 64 143
e 65 81
e 65 84
e 65 93
e 65 107
e 65 110
e 65 114
e 65 115
e 65 121
e 65 122
e 65 123
e 65 127
e 65 132
e 65 136
e 65 138
e 65 140
e 66 73
e 66 74
e 66 75
e 66 76
e 66 81
e 66 83
e 66 91
e 66 92
e 66 93
e 66 94
e 66 95
e 66 97
e 66 99
e 66 107
e 66 108
e 66 124
e 66 128
e 66 130
e 66 135
e 66 141
e 66 143
e 66 144
e 67 68
e 67 74
e 67 76
e 67 77
e 67 78
e 67 79
e 67 88
e 67 90
e 67 94
e 67 100
e 67 101
e 67 104
e 67 108
e 67 109
e 67 112
e 67 116
e 67 119
e 67 122
e 67 124
e 67 127
e 67 131
e 67 133
e 67 139
e 67 141
e 67 142
e 68 71
e 68 72
e 68 77
e 68 80
e 68 90
e 68 97
e 68 102
e 68 103
e 68 108
e 68 111
e 68 116
e 68 117
e 68 119
e 68 125
e 68 134
e 68 139
e 68 142
e 69 75
e 69 78
e 69 80
e 69 82
e 69 86
e 69 95
e 69 96
e 69 101
e 69 106
e 69 109
e 69 116
e 69 124
e 69 127
e 69 132
e 69 134
e 69 135
e 69 136
e 69 137
e 70 77
e 70 83
e 70 85
e 70 90
e 70 93
e 70 96
e 70 103
e 70 112
e 70 118
e 70 121
e 70 122
e 70 126
e 70 128
e 70 130
e 70 131
e 70 133
e 70 137
e 70 141
e 70 143
e 70 144
e 71 72
e 71 73
e 71 77
e 71 80
e 71 87
e 71 91
e 71 94
e 71 97
e 71 100
e 71 102
e 71 104
e 71 105
e 71 106
e 71 117
e 71 120
e 71 123
e 71 131
e 71 134
e 71 135
e 71 138
e 71 139
e 72 73
e 72 83
e 72 84
e 72 88
e 72 94
e 72 98
e 72 100
e 72 101
e 72 108
e 72 117
e 72 123
e 72 124
e 72 125
e 72 126
e 72 129
e 72 131
e 72 134
e 72 135
e 73 75
e 73 85
e 73 86
e 73 91
e 73 94
e 73 95
e 73 97
e 73 98
e 73 100
e 73 104
e 73 115
e 73 116
e 73 123
e 73 125
e 73 126
e 73 130
e 73 131
e 73 132
e 73 135
e 73 142
e 74 75
e 74 77
e 74 79
e 74 87
e 74 88
e 74 92
e 74 93
e 74 94
e 74 95
e 74 99
e 74 106
e 74 107
e 74 108
e 74 112
e 74 115
e 74 117
e 74 118
e 74 124
e 74 125
e 74 128
e 74 131
e 75 80
e 75 82
e 75 96
e 75 99
e 75 109
e 75 112
e 75 115
e 75 117
e 75 118
e 75 119
e 75 123
e 75 124
e 75 128
e 75 130
e 75 132
e 75 141
e 76 78
e 76 79
e 76 83
e 76 86
e 76 93
e 76 96
e 76 99
e 76 100
e 76 102
e 76 109
e 76 119
e 76 125
e 76 127
e 76 129
e 76 133
e 76 135
e 76 140
e 76 141
e 76 143
e 76 144
e 77 79
e 77 80
e 77 83
e 77 85
e 77 86
e 77 88
e 77 97
e 77 99
e 77 102
e 77 117
e 77 122
e 77 124
e 77 128
e 77 131
e 78 82
e 78 86
e 78 89
e 78 94
e 78 97
e 78 100
e 78 101
e 78 105
e 78 106
e 78 107
e 78 127
e 78 131
e 78 133
e 78 134
e 78 136
e 78 137
e 78 140
e 78 141
e 79 81
e 79 82
e 79 88
e 79 89
e 79 90
e 79 93
e 79 96
e 79 100
e 79 102
e 79 109
e 79 118
e 79 119
e 79 124
e 79 125
e 79 130
e 79 131
e 79 135
e 79 136
e 79 140
e 80 81
e 80 82
e 80 84
e 80 92
e 80 97
e 80 102
e 80 109
e 80 112
e 80 113
e 80 117
e 80 124
e 80 132
e 80 133
e 80 138
e 81 82
e 81 84
e 81 90
e 81 91
e 81 97
e 81 100
e 81 112
e 81 114
e 81 121
e 81 122
e 81 123
e 81 124
e 81 140
e 81 141
e 81 143
e 82 87
e 82 89
e 82 90
e 82 94
e 82 97
e 82 98
e 82 100
e 82 105
e 82 109
e 82 120
e 82 124
e 82 126
e 82 127
e 82 132
e 82 144
e 83 85
e 83 88
e 83 92
e 83 99
e 83 101
e 83 115
e 83 117
e 83 122
e 83 126
e 83 128
e 83 129
e 83 135
e 83 142
e 83 144
e 84 92
e 84 98
e 84 108
e 84 113
e 84 114
e 84 121
e 84 122
e 84 123
e 84 124
e 84 133
e 84 134
e 84 138
e 84 140
e 85 88
e 85 97
e 85 98
e 85 100
e 85 104
e 85 108
e 85 109
e 85 111
e 85 113
e 85 114
e 85 115
e 85 116
e 85 117
e 85 122
e 85 125
e 85 128
e 85 137
e 85 139
e 86 91
e 86 95
e 86 99
e 86 101
e 86 106
e 86 119
e 86 126
e 86 129
e 86 132
e 86 134
e 86 136
e 86 137
e 86 142
e 86 143
e 87 98
e 87 102
e 87 104
e 87 106
e 87 110
e 87 113
e 87 120
e 87 125
e 87 126
e 87 127
e 87 134
e 87 142
e 87 144
e 88 101
e 88 105
e 88 110
e 88 111
e 88 117
e 88 121
e 88 124
e 88 126
e 88 129
e 88 130
e 88 131
e 88 139
e 89 94
e 89 95
e 89 97
e 89 103
e 89 104
e 89 105
e 89 114
e 89 118
e 89 119
e 89 129
e 89 130
e 89 135
e 89 136
e 89 137
e 90 96
e 90 100
e 90 108
e 90 112
e 90 116
e 90 119
e 90 131
e 90 137
e 90 139
e 90 140
e 90 142
e 90 143
e 90 144
e 91 95
e 91 97
e 91 105
e 91 106
e 91 120
e 91 124
e 91 126
e 91 132
e 91 138
e 91 139
e 91 141
e 91 142
e 91 143
e 92 93
e 92 94
e 92 95
e 92 107
e 92 108
e 92 113
e 92 115
e 92 118
e 92 128
e 92 133
e 92 138
e 92 142
e 92 143
e 93 94
e 93 95
e 93 96
e 93 102
e 93 103
e 93 107
e 93 108
e 93 109
e 93 110
e 93 115
e 93 118
e 93 121
e 93 125
e 93 126
e 93 127
e 93 128
e 93 136
e 93 138
e 93 140
e 93 141
e 94 95
e 94 97
e 94 100
e 94 101
e 94 104
e 94 105
e 94 107
e 94 108
e 94 109
e 94 112
e 94 122
e 94 123
e 94 128
e 94 131
e 94 135
e 95 96
e 95 103
e 95 104
e 95 107
e 95 108
e 95 114
e 95 126
e 95 127
e 95 128
e 95 129
e 95 132
e 95 135
e 95 142
e 96 102
e 96 109
e 96 112
e 96 119
e 96 123
e 96 125
e 96 127
e 96 128
e 96 131
e 96 135
e 96 137
e 96 140
e 96 141
e 96 143
e 96 144
e 97 98
e 97 102
e 97 104
e 97 105
e 97 115
e 97 116
e 97 117
e 97 124
e 97 125
e 97 141
e 97 143
e 98 101
e 98 102
e 98 104
e 98 107
e 98 108
e 98 115
e 98 116
e 98 120
e 98 124
e 98 125
e 98 126
e 98 127
e 98 134
e 98 139
e 98 144
e 99 112
e 99 115
e 99 116
e 99 117
e 99 118
e 99 120
e 99 128
e 99 133
e 99 135
e 99 144
e 100 108
e 100 109
e 100 111
e 100 113
e 100 114
e 100 117
e 100 123
e 100 127
e 100 131
e 100 133
e 100 135
e 100 137
e 100 141
e 101 102
e 101 104
e 101 106
e 101 107
e 101 109
e 101 112
e 101 117
e 101 122
e 101 126
e 101 129
e 101 134
e 101 136
e 101 137
e 101 139
e 102 107
e 102 109
e 102 110
e 102 113
e 102 117
e 102 125
e 102 139
e 102 140
e 102 142
e 103 104
e 103 111
e 103 114
e 103 118
e 103 120
e 103 121
e 103 126
e 103 129
e 103 134
e 103 141
e 104 109
e 104 112
e 104 114
e 104 115
e 104 116
e 104 122
e 104 125
e 104 129
e 104 134
e 105 106
e 105 110
e 105 111
e 105 113
e 105 120
e 105 121
e 105 130
e 105 138
e 105 139
e 106 120
e 106 125
e 106 134
e 106 136
e 106 137
e 106 138
e 106 139
e 107 108
e 107 128
e 107 131
e 107 132
e 107 139
e 107 140
e 108 109
e 108 111
e 108 113
e 108 114
e 108 116
e 108 117
e 108 119
e 108 124
e 108 128
e 108 134
e 108 137
e 108 139
e 108 142
e 109 111
e 109 112
e 109 113
e 109 114
e 109 117
e 109 122
e 109 124
e 109 125
e 109 132
e 109 137
e 109 140
e 110 111
e 110 113
e 110 115
e 110 121
e 110 127
e 110 130
e 110 136
e 110 138
e 110 142
e 111 113
e 111 114
e 111 117
e 111 121
e 111 130
e 111 134
e 111 137
e 112 115
e 112 117
e 112 118
e 112 122
e 112 131
e 112 137
e 112 143
e 112 144
e 113 114
e 113 117
e 113 133
e 113 137
e 113 138
e 113 142
e 114 117
e 114 121
e 114 122
e 114 123
e 114 129
e 114 137
e 114 140
e 115 116
e 115 117
e 115 118
e 115 125
e 115 127
e 115 136
e 115 138
e 115 142
e 116 119
e 116 120
e 116 125
e 116 128
e 116 133
e 116 139
e 116 142
e 117 118
e 117 126
e 117 129
e 117 137
e 118 119
e 118 121
e 118 126
e 118 130
e 118 135
e 118 136
e 118 141
e 118 143
e 119 123
e 119 128
e 119 129
e 119 130
e 119 135
e 119 136
e 119 139
e 119 141
e 119 142
e 119 143
e 120 126
e 120 127
e 120 128
e 120 133
e 120 138
e 120 139
e 120 144
e 121 122
e 121 123
e 121 126
e 121 130
e 121 140
e 121 141
e 122 123
e 122 128
e 122 140
e 123 128
e 123 131
e 123 132
e 123 135
e 123 136
e 123 140
e 123 141
e 123 144
e 124 131
e 124 132
e 124 134
e 124 141
e 124 143
e 125 140
e 126 127
e 126 129
e 126 132
e 126 141
e 126 142
e 126 144
e 127 133
e 127 135
e 127 136
e 127 138
e 127 141
e 127 144
e 128 133
e 128 141
e 129 143
e 130 133
e 130 135
e 130 136
e 131 135
e 131 137
e 131 140
e 131 143
e 131 144
e 132 136
e 132 142
e 132 144
e 133 138
e 133 141
e 134 136
e 134 137
e 135 136
e 135 144
e 136 137
e 136 138
e 136 144
e 137 143
e 137 144
e 138 139
e 139 142
e 141 143
e 143 144
